SYSTEM = NaCl
!!!LREAL = Auto
Algo = Fast
NSW = 40

LWAVE = .FALSE.
!LCHARG = .FALSE.

ISPIN =  1

ISMEAR = 0
SIGMA = 0.1

IBRION = 2
ISIF = 2

EDIFF = 1e-5
EDIFFG = -0.01
