&control
    calculation = 'vc-relax'
    pseudo_dir = '/usr/local/qe/gbrv/all_pbe_UPF_v1.5/'
    outdir='./outdir/'
    nstep = 10
/

&system
    ibrav = 0
    nat = 16
    ntyp = 1
    ecutwfc = 40
    ecutrho = 200
    occupations = 'smearing'
    degauss = 0.01
/

&electrons
/

&ions
/

&cell
/

ATOMIC_SPECIES
  Si -1.0 si_pbe_v1.uspp.F.UPF
